
%    +---------------+
% 10 | | | | | | | | |
% 9  | | | | | | | | |
% 8  | | | | | | | | |
% 7  | | | | | | | | |
% 6  | | | | | | |7| |
% 5  | |8| | |5| | | |
% 4  | | | | | | | | |
% 3  | | | |3| | |6| |
% 2  |1|1| | | | |4| |
% 1  |1|1|2| | | | | |
%    +---------------+
n=8;
m=10;
h=2;
%maxT=30;
boxNumber=8;
boxSideLen = [2, 1, 1, 1, 1, 1, 1, 1];
boxStartX  = [1, 3, 4, 7, 5, 7, 7, 2];
boxStartY  = [1, 1, 3, 2, 5, 3, 6, 5];
